(set-info :smt-lib-version 2.6)
(set-logic ALL)
(set-info :source |
Generated on: 2026-06-22
Generator: ppTransSmt github.com/CLEARSY/pptranspog
Application: Discharging a proof obligation generated by aTelierB from an anonymized B machine
Target solver: CVC5
Time limit: 1200.0
|)
(set-info :license "www.gnu.org/licenses/gpl-3.0.en.html")
(set-info :category "industrial")
(set-info :status unknown)

; Prelude
(declare-sort P 1)
(declare-fun mem0 (Int (P Int)) Bool)
(declare-sort C 2)

(declare-fun iexp (Int Int) Int)
(assert (!
 (forall ((x Int))
  (!
   (=> (not (= x 0)) (= (iexp x 0) 1))
   :pattern ((iexp x 0))
  )
 )
 :named |iexp_axiom_1|
))
(assert (!
 (forall ((x Int) (n Int))
  (!
   (=> (>= n 1) (= (iexp x n) (* x (iexp x (- n 1)))))
   :pattern ((iexp x n))
  )
 )
 :named |iexp_axiom_2|))

(define-fun MinInt () Int (- 2147483648))
(define-fun MaxInt () Int 2147483647)
; Global declarations
(declare-fun g_s0_0 () (P Int))
(declare-fun g_s11_9 () (P (C (P Int) (P (C Int Int)))))
(declare-fun g_s12_10 () (P (C Int Int)))
(declare-fun g_s1_1 () Int)
(declare-fun g_s2_2 () Int)
(declare-fun g_s3_3 () (P (C Int (P (C Int Int)))))
(declare-fun g_s4_4 () (P (C (P (C Int Int)) Int)))
(declare-fun g_s5_5 () (P (C Bool Int)))
(declare-fun g_s6_6 () (P (C Int Bool)))
(declare-fun g_s7_7 () (P (C Int (P Int))))
(declare-fun g_s8_11 () Int)
(declare-fun g_s9_8 () (P (C (P (C Int Int)) (P Int))))
(declare-fun mem2 ( Int (P (C Int Int)) (P (C Int (P (C Int Int))))) Bool)
(declare-fun mem3 ( Int Int (P (C Int Int))) Bool)
(declare-fun mem4 ( (P (C Int Int)) Int (P (C (P (C Int Int)) Int))) Bool)
(declare-fun mem5 ( Bool Int (P (C Bool Int))) Bool)
(declare-fun mem6 ( Int Bool (P (C Int Bool))) Bool)
(declare-fun mem7 ( Int (P Int) (P (C Int (P Int)))) Bool)
(declare-fun mem8 ( (P (C Int Int)) (P Int) (P (C (P (C Int Int)) (P Int)))) Bool)
(declare-fun mem9 ( (P Int) (P (C Int Int)) (P (C (P Int) (P (C Int Int))))) Bool)
; Defines
(define-fun |def_lprp_0| () Bool (and (forall ( (x_3 Int) ) (= (mem0 x_3 g_s0_0) (or  (= x_3 g_s1_1) (= x_3 g_s2_2)))) (distinct g_s1_1 g_s2_2)))
(define-fun |def_lprp_1| () Bool (exists ( (x_4 (P (C Int (P (C Int Int))))) ) (and (forall ( (x_5 (P (C Int Int))) (x_6 Int) ) (= (mem2 x_6 x_5 x_4) (mem2 x_6 x_5 g_s3_3))) (forall ( (x_7 Int) (x_8 (P (C Int Int))) (x_9 (P (C Int Int))) ) (=> (and  (mem2 x_7 x_8 x_4) (mem2 x_7 x_9 x_4)) (forall ( (x_10 Int) (x_11 Int) ) (= (mem3 x_11 x_10 x_8) (mem3 x_11 x_10 x_9))))) (forall ( (x_12 Int) ) (= true (exists ( (x_13 (P (C Int Int))) ) (mem2 x_12 x_13 x_4)))) (forall ( (x_14 (P (C Int Int))) ) (=> (exists ( (x_15 Int) ) (mem2 x_15 x_14 x_4)) (and (forall ( (x_16 Int) (x_17 Int) ) (=> (mem3 x_17 x_16 x_14) (and true (mem0 x_16 g_s0_0)))) (forall ( (x_18 Int) (x_19 Int) (x_20 Int) ) (=> (and  (mem3 x_18 x_19 x_14) (mem3 x_18 x_20 x_14)) (= x_19 x_20)))))))))
(define-fun |def_lprp_2| () Bool (exists ( (x_21 (P (C (P (C Int Int)) Int))) ) (and (forall ( (x_22 Int) (x_23 (P (C Int Int))) ) (= (mem4 x_23 x_22 x_21) (mem4 x_23 x_22 g_s4_4))) (forall ( (x_24 (P (C Int Int))) (x_25 Int) (x_26 Int) ) (=> (and  (mem4 x_24 x_25 x_21) (mem4 x_24 x_26 x_21)) (= x_25 x_26))) (forall ( (x_27 (P (C Int Int))) ) (= (and (forall ( (x_28 Int) (x_29 Int) ) (=> (mem3 x_29 x_28 x_27) (and true (mem0 x_28 g_s0_0)))) (forall ( (x_30 Int) (x_31 Int) (x_32 Int) ) (=> (and  (mem3 x_30 x_31 x_27) (mem3 x_30 x_32 x_27)) (= x_31 x_32)))) (exists ( (x_33 Int) ) (mem4 x_27 x_33 x_21)))) (forall ( (x_34 Int) ) (=> (exists ( (x_35 (P (C Int Int))) ) (mem4 x_35 x_34 x_21)) true)))))
(define-fun |def_lprp_3| () Bool (forall ( (x_36 Int) (x_37 (P (C Int Int))) ) (= (mem4 x_37 x_36 g_s4_4) (mem2 x_36 x_37 g_s3_3))))
(define-fun |def_lprp_4| () Bool (exists ( (x_38 (P (C Bool Int))) ) (and (forall ( (x_39 Int) (x_40 Bool) ) (= (mem5 x_40 x_39 x_38) (mem5 x_40 x_39 g_s5_5))) (forall ( (x_41 Bool) (x_42 Int) (x_43 Int) ) (=> (and  (mem5 x_41 x_42 x_38) (mem5 x_41 x_43 x_38)) (= x_42 x_43))) (forall ( (x_44 Bool) ) (= true (exists ( (x_45 Int) ) (mem5 x_44 x_45 x_38)))) (forall ( (x_46 Int) ) (=> (exists ( (x_47 Bool) ) (mem5 x_47 x_46 x_38)) (mem0 x_46 g_s0_0))))))
(define-fun |def_lprp_5| () Bool (exists ( (x_48 (P (C Int Bool))) ) (and (forall ( (x_49 Bool) (x_50 Int) ) (= (mem6 x_50 x_49 x_48) (mem6 x_50 x_49 g_s6_6))) (forall ( (x_51 Int) (x_52 Bool) (x_53 Bool) ) (=> (and  (mem6 x_51 x_52 x_48) (mem6 x_51 x_53 x_48)) (= x_52 x_53))) (forall ( (x_54 Int) ) (= (mem0 x_54 g_s0_0) (exists ( (x_55 Bool) ) (mem6 x_54 x_55 x_48)))) (forall ( (x_56 Bool) ) (=> (exists ( (x_57 Int) ) (mem6 x_57 x_56 x_48)) true)))))
(define-fun |def_lprp_6| () Bool (forall ( (x_58 (P Int)) (x_59 Int) ) (= (mem7 x_59 x_58 g_s7_7) (and  (and (>= x_59 MinInt) (<= x_59 MaxInt)) (forall ( (x_60 Int) ) (= (mem0 x_60 x_58) (and (>= x_60 0) (<= x_60 (- (iexp 2 (- x_59 1)) 1)))))))))
(define-fun |def_lprp_7| () Bool (forall ( (x_61 Int) (x_62 Bool) ) (= (mem5 x_62 x_61 g_s5_5) (or  (and (= x_62 true) (= x_61 g_s2_2)) (and (= x_62 false) (= x_61 g_s1_1))))))
(define-fun |def_lprp_8| () Bool (forall ( (x_63 Bool) (x_64 Int) ) (= (mem6 x_64 x_63 g_s6_6) (or  (and (= x_64 g_s2_2) (= x_63 true)) (and (= x_64 g_s1_1) (= x_63 false))))))
(define-fun |def_lprp_9| () Bool (exists ( (x_65 (P (C (P (C Int Int)) (P Int)))) ) (and (forall ( (x_66 (P Int)) (x_67 (P (C Int Int))) ) (= (mem8 x_67 x_66 x_65) (mem8 x_67 x_66 g_s9_8))) (forall ( (x_68 (P (C Int Int))) (x_69 (P Int)) (x_70 (P Int)) ) (=> (and  (mem8 x_68 x_69 x_65) (mem8 x_68 x_70 x_65)) (forall ( (x_71 Int) ) (= (mem0 x_71 x_69) (mem0 x_71 x_70))))) (forall ( (x_72 (P (C Int Int))) ) (= (and (forall ( (x_73 Int) (x_74 Int) ) (=> (mem3 x_74 x_73 x_72) (and true (mem0 x_73 g_s0_0)))) (forall ( (x_75 Int) (x_76 Int) (x_77 Int) ) (=> (and  (mem3 x_75 x_76 x_72) (mem3 x_75 x_77 x_72)) (= x_76 x_77)))) (exists ( (x_78 (P Int)) ) (mem8 x_72 x_78 x_65)))) (forall ( (x_79 (P Int)) ) (=> (exists ( (x_80 (P (C Int Int))) ) (mem8 x_80 x_79 x_65)) (forall ( (x_81 Int) ) (=> (mem0 x_81 x_79) true)))))))
(define-fun |def_lprp_10| () Bool (forall ( (x_82 (P Int)) (x_83 (P (C Int Int))) ) (= (mem8 x_83 x_82 g_s9_8) (and  (and (forall ( (x_84 Int) (x_85 Int) ) (=> (mem3 x_85 x_84 x_83) (and true (mem0 x_84 g_s0_0)))) (forall ( (x_86 Int) (x_87 Int) (x_88 Int) ) (=> (and  (mem3 x_86 x_87 x_83) (mem3 x_86 x_88 x_83)) (= x_87 x_88)))) (forall ( (x_89 Int) ) (= (mem0 x_89 x_82) (exists ( (x_90 Int) ) (and  (= x_90 g_s2_2) (mem3 x_89 x_90 x_83)))))))))
(define-fun |def_lprp_11| () Bool (exists ( (x_91 (P (C (P Int) (P (C Int Int))))) ) (and (forall ( (x_92 (P (C Int Int))) (x_93 (P Int)) ) (= (mem9 x_93 x_92 x_91) (mem9 x_93 x_92 g_s11_9))) (forall ( (x_94 (P Int)) (x_95 (P (C Int Int))) (x_96 (P (C Int Int))) ) (=> (and  (mem9 x_94 x_95 x_91) (mem9 x_94 x_96 x_91)) (forall ( (x_97 Int) (x_98 Int) ) (= (mem3 x_98 x_97 x_95) (mem3 x_98 x_97 x_96))))) (forall ( (x_99 (P Int)) ) (= (forall ( (x_100 Int) ) (=> (mem0 x_100 x_99) true)) (exists ( (x_101 (P (C Int Int))) ) (mem9 x_99 x_101 x_91)))) (forall ( (x_102 (P (C Int Int))) ) (=> (exists ( (x_103 (P Int)) ) (mem9 x_103 x_102 x_91)) (and (forall ( (x_104 Int) (x_105 Int) ) (=> (mem3 x_105 x_104 x_102) (and true (mem0 x_104 g_s0_0)))) (forall ( (x_106 Int) (x_107 Int) (x_108 Int) ) (=> (and  (mem3 x_106 x_107 x_102) (mem3 x_106 x_108 x_102)) (= x_107 x_108)))))))))
(define-fun |def_lprp_12| () Bool (forall ( (x_109 Int) (x_110 Int) ) (= (mem3 x_110 x_109 g_s12_10) (or  (and (= x_110 g_s1_1) (= x_109 g_s2_2)) (and (= x_110 g_s2_2) (= x_109 g_s1_1))))))
(define-fun |def_sets_0| () Bool (and (forall ( (x_111 Int) ) (= (mem0 x_111 g_s0_0) (or  (= x_111 g_s1_1) (= x_111 g_s2_2)))) (distinct g_s1_1 g_s2_2)))
; PO group s13
(assert (! |def_sets_0| :named |sets0|))
(define-fun lh_1 () Bool (exists ( (x_112 (P (C Int (P (C Int Int))))) ) (and (forall ( (x_113 (P (C Int Int))) (x_114 Int) ) (= (mem2 x_114 x_113 x_112) (mem2 x_114 x_113 g_s3_3))) (forall ( (x_115 Int) (x_116 (P (C Int Int))) (x_117 (P (C Int Int))) ) (=> (and  (mem2 x_115 x_116 x_112) (mem2 x_115 x_117 x_112)) (forall ( (x_118 Int) (x_119 Int) ) (= (mem3 x_119 x_118 x_116) (mem3 x_119 x_118 x_117))))) (forall ( (x_120 Int) ) (= true (exists ( (x_121 (P (C Int Int))) ) (mem2 x_120 x_121 x_112)))) (forall ( (x_122 (P (C Int Int))) ) (=> (exists ( (x_123 Int) ) (mem2 x_123 x_122 x_112)) (and (forall ( (x_124 Int) (x_125 Int) ) (=> (mem3 x_125 x_124 x_122) (and true (mem0 x_124 g_s0_0)))) (forall ( (x_126 Int) (x_127 Int) (x_128 Int) ) (=> (and  (mem3 x_126 x_127 x_122) (mem3 x_126 x_128 x_122)) (= x_127 x_128)))))))))
(define-fun lh_2 () Bool (exists ( (x_129 (P (C (P (C Int Int)) Int))) ) (and (forall ( (x_130 Int) (x_131 (P (C Int Int))) ) (= (mem4 x_131 x_130 x_129) (mem4 x_131 x_130 g_s4_4))) (forall ( (x_132 (P (C Int Int))) (x_133 Int) (x_134 Int) ) (=> (and  (mem4 x_132 x_133 x_129) (mem4 x_132 x_134 x_129)) (= x_133 x_134))) (forall ( (x_135 (P (C Int Int))) ) (= (and (forall ( (x_136 Int) (x_137 Int) ) (=> (mem3 x_137 x_136 x_135) (and true (mem0 x_136 g_s0_0)))) (forall ( (x_138 Int) (x_139 Int) (x_140 Int) ) (=> (and  (mem3 x_138 x_139 x_135) (mem3 x_138 x_140 x_135)) (= x_139 x_140)))) (exists ( (x_141 Int) ) (mem4 x_135 x_141 x_129)))) (forall ( (x_142 Int) ) (=> (exists ( (x_143 (P (C Int Int))) ) (mem4 x_143 x_142 x_129)) true)))))
(define-fun lh_3 () Bool (forall ( (x_144 Int) (x_145 (P (C Int Int))) ) (= (mem4 x_145 x_144 g_s4_4) (mem2 x_144 x_145 g_s3_3))))
(define-fun lh_4 () Bool (exists ( (x_146 (P (C Bool Int))) ) (and (forall ( (x_147 Int) (x_148 Bool) ) (= (mem5 x_148 x_147 x_146) (mem5 x_148 x_147 g_s5_5))) (forall ( (x_149 Bool) (x_150 Int) (x_151 Int) ) (=> (and  (mem5 x_149 x_150 x_146) (mem5 x_149 x_151 x_146)) (= x_150 x_151))) (forall ( (x_152 Bool) ) (= true (exists ( (x_153 Int) ) (mem5 x_152 x_153 x_146)))) (forall ( (x_154 Int) ) (=> (exists ( (x_155 Bool) ) (mem5 x_155 x_154 x_146)) (mem0 x_154 g_s0_0))))))
(define-fun lh_5 () Bool (exists ( (x_156 (P (C Int Bool))) ) (and (forall ( (x_157 Bool) (x_158 Int) ) (= (mem6 x_158 x_157 x_156) (mem6 x_158 x_157 g_s6_6))) (forall ( (x_159 Int) (x_160 Bool) (x_161 Bool) ) (=> (and  (mem6 x_159 x_160 x_156) (mem6 x_159 x_161 x_156)) (= x_160 x_161))) (forall ( (x_162 Int) ) (= (mem0 x_162 g_s0_0) (exists ( (x_163 Bool) ) (mem6 x_162 x_163 x_156)))) (forall ( (x_164 Bool) ) (=> (exists ( (x_165 Int) ) (mem6 x_165 x_164 x_156)) true)))))
(define-fun lh_6 () Bool (and (>= g_s8_11 MinInt) (<= g_s8_11 MaxInt)))
; PO 0 in group s13
(assert (! (not (=> (and lh_1 lh_2 lh_3 lh_4 lh_5 lh_6) (<= 0 (- g_s8_11 1)))) :named goal))
(check-sat)
(exit)
